NAME : n80w20.003.727.tour
COMMENT : Length = 727
COMMENT : Found by LKH [Keld Helsgaun] Tue Nov  7 19:36:27 2017
TYPE : TOUR
DIMENSION : 81
TOUR_SECTION
1
47
12
51
9
67
35
45
49
42
11
7
4
46
53
70
14
25
3
62
18
76
21
10
31
26
37
74
78
40
43
59
60
56
44
50
57
73
65
52
79
5
54
75
58
29
77
32
36
15
13
17
41
71
38
27
63
72
2
68
19
61
16
28
39
48
66
20
80
23
34
22
8
24
55
33
30
64
6
81
69
-1
EOF
